Read MPS format model from file dat/rmp/DER_48_16384_20.mps
Reading time = 0.86 seconds
: 16432 rows, 57488 columns, 2490555 nonzeros
Gurobi Optimizer version 9.0.0 build v9.0.0rc2 (linux64)
Optimize a model with 16432 rows, 57488 columns and 2490555 nonzeros
Model fingerprint: 0x81d671a9
Coefficient statistics:
  Matrix range     [1e-13, 1e+01]
  Objective range  [3e-01, 1e+03]
  Bounds range     [1e+05, 1e+05]
  RHS range        [1e+00, 1e+00]
Ordering time: 0.02s

Barrier statistics:
 AA' NZ     : 7.460e+05
 Factor NZ  : 9.316e+05 (roughly 40 MBytes of memory)
 Factor Ops : 5.477e+07 (less than 1 second per iteration)
 Threads    : 1

                  Objective                Residual
Iter       Primal          Dual         Primal    Dual     Compl     Time
   0   2.89708617e+09 -1.96981893e+08  8.37e+07 1.66e-02  1.12e+06     1s
   1   7.05876718e+07 -3.44257920e+07  1.95e+06 1.82e-12  2.66e+04     1s
   2   4.39506926e+06 -1.42850522e+07  1.16e+05 2.73e-12  1.80e+03     1s
   3   2.53720241e+05 -8.03830602e+06  5.29e+03 3.64e-12  2.02e+02     1s
   4   5.01053518e+04 -1.80930997e+06  7.58e+00 3.64e-12  3.23e+01     1s
   5   4.95427178e+04  2.96730704e+04  6.35e-10 1.82e-12  3.45e-01     1s
   6   4.92534993e+04  4.43009589e+04  5.14e-10 1.09e-11  8.61e-02     1s
   7   4.86404312e+04  4.67474038e+04  4.39e-10 3.64e-12  3.29e-02     2s
   8   4.83370652e+04  4.78210612e+04  7.24e-10 3.64e-12  8.97e-03     2s
   9   4.82054703e+04  4.79007091e+04  7.91e-10 1.82e-12  5.30e-03     2s
  10   4.81063451e+04  4.79728984e+04  1.40e-09 1.82e-12  2.32e-03     2s
  11   4.80500262e+04  4.80172816e+04  2.07e-09 1.82e-12  5.69e-04     3s
  12   4.80396981e+04  4.80226778e+04  4.98e-09 1.82e-12  2.96e-04     3s
  13   4.80354343e+04  4.80288364e+04  4.11e-09 1.82e-12  1.15e-04     3s
  14   4.80337879e+04  4.80297924e+04  4.65e-09 1.82e-12  6.94e-05     3s
  15   4.80330957e+04  4.80304048e+04  7.45e-09 1.82e-12  4.68e-05     3s
  16   4.80322124e+04  4.80308289e+04  6.39e-09 2.73e-12  2.40e-05     3s
  17   4.80321531e+04  4.80308654e+04  7.17e-09 1.82e-12  2.24e-05     4s
  18   4.80319370e+04  4.80310144e+04  9.74e-09 1.82e-12  1.60e-05     4s
  19   4.80318079e+04  4.80310906e+04  4.54e-09 1.82e-12  1.25e-05     4s
  20   4.80317271e+04  4.80311794e+04  3.49e-09 1.82e-12  9.52e-06     4s
  21   4.80315951e+04  4.80312108e+04  9.43e-09 1.82e-12  6.68e-06     4s
  22   4.80315478e+04  4.80312179e+04  1.39e-08 1.82e-12  5.73e-06     4s
  23   4.80315051e+04  4.80312354e+04  1.74e-08 1.82e-12  4.69e-06     5s
  24   4.80313663e+04  4.80312485e+04  3.97e-08 3.64e-12  2.05e-06     5s
  25   4.80312697e+04  4.80312575e+04  8.85e-08 1.82e-12  2.11e-07     5s
  26   4.80312620e+04  4.80312606e+04  1.34e-07 1.82e-12  2.42e-08     5s
  27   4.80312610e+04  4.80312609e+04  9.26e-07 3.64e-12  1.44e-09     5s
  28   4.80312609e+04  4.80312609e+04  3.79e-07 1.82e-12  2.16e-10     6s

Barrier solved model in 28 iterations and 5.51 seconds
Optimal objective 4.80312609e+04

Solve time: 5.511177383
Barrier iterations: 28
